
m = 10;

n = 10;

Amin = 40;

Amax = 50;

B = 1920;

lambda = 20.00;

c = 
[[8,10,8,5,9,6,8,2,9,9],
[4,9,5,5,8,6,6,6,8,2],
[5,3,7,2,10,2,4,4,7,9],
[8,2,8,3,6,4,7,3,5,4],
[8,7,2,9,8,8,5,2,10,9],
[2,2,10,5,2,7,5,3,7,8],
[8,5,9,3,6,4,5,10,5,6],
[3,9,10,3,8,7,7,2,5,4],
[9,6,4,6,7,4,9,2,3,6],
[8,9,7,4,10,9,6,3,8,7]];
